nbProcess=3;
nbJobs =3;
nbMchs =3;
Process1=[3,3,3];
pidle=[1,2,3];
EnergyS=[10,30,60];
TB=[10,15,20];
x=
[
[
[1,1,0,],
[1,1,0,],
[1,0,0,],
],
[
[0,1,1,],
[0,1,0,],
[1,1,1,],
],
[
[0,0,1,],
[0,0,1,],
[0,1,1,],
],
];
ptime =
[
[
[17,40,0],
[30,150,0],
[50,0,0]
],
[
[0,130,50],
[0,160,0],
[60,170,90]
],
[
[0,0,60],
[0,0,70],
[0,180,100]
]
];
power1=
[
[
[4.8,4.9,0,],
[3.3,3.3,0,],
[4.7,0,0,],
],
[
[0,4.9,3.7,],
[0,3.5,0,],
[3.9,3.7,4.7,],
],
[
[0,0,4.8,],
[0,0,4.5,],
[0,4.1,3.2,],
],
];
